NAME          
ROWS
 N  OBJ
 L  c1
 L  c2
 L  c3
COLUMNS
    MARKER    'MARKER'                 'INTORG'
    x[1]      c1        199
    x[1]      c2        595
    x[1]      c3        102
    x[1]      OBJ       -129
    x[2]      c1        139
    x[2]      c2        662
    x[2]      c3        168
    x[2]      OBJ       -450
    x[3]      c1        404
    x[3]      c2        419
    x[3]      c3        29
    x[3]      OBJ       -59
    x[4]      c1        620
    x[4]      c2        405
    x[4]      c3        604
    x[4]      OBJ       -899
    x[5]      c1        329
    x[5]      c2        830
    x[5]      c3        860
    x[5]      OBJ       -207
    x[6]      c1        744
    x[6]      c2        556
    x[6]      c3        600
    x[6]      OBJ       -580
    x[7]      c1        71
    x[7]      c2        516
    x[7]      c3        469
    x[7]      OBJ       -525
    x[8]      c1        461
    x[8]      c2        435
    x[8]      c3        698
    x[8]      OBJ       -509
    x[9]      c1        799
    x[9]      c2        246
    x[9]      c3        485
    x[9]      OBJ       -753
    x[10]     c1        791
    x[10]     c2        517
    x[10]     c3        601
    x[10]     OBJ       -337
    x[11]     c1        177
    x[11]     c2        923
    x[11]     c3        65
    x[11]     OBJ       -806
    x[12]     c1        617
    x[12]     c2        227
    x[12]     c3        892
    x[12]     OBJ       -936
    x[13]     c1        135
    x[13]     c2        179
    x[13]     c3        852
    x[13]     OBJ       -302
    x[14]     c1        190
    x[14]     c2        928
    x[14]     c3        634
    x[14]     OBJ       -567
    x[15]     c1        433
    x[15]     c2        678
    x[15]     c3        935
    x[15]     OBJ       -291
    x[16]     c1        672
    x[16]     c2        281
    x[16]     c3        366
    x[16]     OBJ       -2
    x[17]     c1        115
    x[17]     c2        526
    x[17]     c3        72
    x[17]     OBJ       -312
    x[18]     c1        35
    x[18]     c2        226
    x[18]     c3        130
    x[18]     OBJ       -33
    x[19]     c1        106
    x[19]     c2        80
    x[19]     c3        920
    x[19]     OBJ       -84
    x[20]     c1        870
    x[20]     c2        696
    x[20]     c3        1000
    x[20]     OBJ       -767
    x[21]     c1        967
    x[21]     c2        242
    x[21]     c3        293
    x[21]     OBJ       -301
    x[22]     c1        625
    x[22]     c2        220
    x[22]     c3        559
    x[22]     OBJ       -942
    x[23]     c1        777
    x[23]     c2        847
    x[23]     c3        834
    x[23]     OBJ       -527
    x[24]     c1        827
    x[24]     c2        561
    x[24]     c3        878
    x[24]     OBJ       -598
    x[25]     c1        873
    x[25]     c2        336
    x[25]     c3        886
    x[25]     OBJ       -138
    x[26]     c1        224
    x[26]     c2        168
    x[26]     c3        901
    x[26]     OBJ       -753
    x[27]     c1        565
    x[27]     c2        306
    x[27]     c3        980
    x[27]     OBJ       -30
    x[28]     c1        67
    x[28]     c2        871
    x[28]     c3        398
    x[28]     OBJ       -490
    x[29]     c1        397
    x[29]     c2        785
    x[29]     c3        252
    x[29]     OBJ       -206
    x[30]     c1        982
    x[30]     c2        760
    x[30]     c3        589
    x[30]     OBJ       -25
    x[31]     c1        147
    x[31]     c2        690
    x[31]     c3        54
    x[31]     OBJ       -8
    x[32]     c1        983
    x[32]     c2        202
    x[32]     c3        270
    x[32]     OBJ       -268
    x[33]     c1        780
    x[33]     c2        323
    x[33]     c3        863
    x[33]     OBJ       -630
    x[34]     c1        502
    x[34]     c2        1000
    x[34]     c3        982
    x[34]     OBJ       -810
    x[35]     c1        659
    x[35]     c2        655
    x[35]     c3        149
    x[35]     OBJ       -302
    x[36]     c1        751
    x[36]     c2        891
    x[36]     c3        559
    x[36]     OBJ       -980
    x[37]     c1        250
    x[37]     c2        369
    x[37]     c3        993
    x[37]     OBJ       -152
    x[38]     c1        123
    x[38]     c2        194
    x[38]     c3        427
    x[38]     OBJ       -972
    x[39]     c1        757
    x[39]     c2        708
    x[39]     c3        700
    x[39]     OBJ       -445
    x[40]     c1        322
    x[40]     c2        707
    x[40]     c3        568
    x[40]     OBJ       -170
    x[41]     c1        332
    x[41]     c2        346
    x[41]     c3        436
    x[41]     OBJ       -23
    x[42]     c1        602
    x[42]     c2        151
    x[42]     c3        647
    x[42]     OBJ       -943
    x[43]     c1        212
    x[43]     c2        1
    x[43]     c3        614
    x[43]     OBJ       -413
    x[44]     c1        605
    x[44]     c2        734
    x[44]     c3        697
    x[44]     OBJ       -8
    x[45]     c1        696
    x[45]     c2        870
    x[45]     c3        332
    x[45]     OBJ       -738
    x[46]     c1        221
    x[46]     c2        293
    x[46]     c3        325
    x[46]     OBJ       -270
    x[47]     c1        848
    x[47]     c2        756
    x[47]     c3        508
    x[47]     OBJ       -560
    x[48]     c1        271
    x[48]     c2        22
    x[48]     c3        380
    x[48]     OBJ       -418
    x[49]     c1        21
    x[49]     c2        876
    x[49]     c3        457
    x[49]     OBJ       -850
    x[50]     c1        744
    x[50]     c2        434
    x[50]     c3        338
    x[50]     OBJ       -388
RHS
    rhs       c1        12018
    rhs       c2        12622
    rhs       c3        13676
RANGES
BOUNDS
 BV bounds    x[1]
 BV bounds    x[2]
 BV bounds    x[3]
 BV bounds    x[4]
 BV bounds    x[5]
 BV bounds    x[6]
 BV bounds    x[7]
 BV bounds    x[8]
 BV bounds    x[9]
 BV bounds    x[10]
 BV bounds    x[11]
 BV bounds    x[12]
 BV bounds    x[13]
 BV bounds    x[14]
 BV bounds    x[15]
 BV bounds    x[16]
 BV bounds    x[17]
 BV bounds    x[18]
 BV bounds    x[19]
 BV bounds    x[20]
 BV bounds    x[21]
 BV bounds    x[22]
 BV bounds    x[23]
 BV bounds    x[24]
 BV bounds    x[25]
 BV bounds    x[26]
 BV bounds    x[27]
 BV bounds    x[28]
 BV bounds    x[29]
 BV bounds    x[30]
 BV bounds    x[31]
 BV bounds    x[32]
 BV bounds    x[33]
 BV bounds    x[34]
 BV bounds    x[35]
 BV bounds    x[36]
 BV bounds    x[37]
 BV bounds    x[38]
 BV bounds    x[39]
 BV bounds    x[40]
 BV bounds    x[41]
 BV bounds    x[42]
 BV bounds    x[43]
 BV bounds    x[44]
 BV bounds    x[45]
 BV bounds    x[46]
 BV bounds    x[47]
 BV bounds    x[48]
 BV bounds    x[49]
 BV bounds    x[50]
ENDATA
